# Solution for model crop rotation_srl_ilp
# Objective value = 3.8912280358854666e+01
Z_142_0_0 0
Z_142_0_1 0
Z_142_0_2 0
Z_142_0_3 1
Z_142_0_4 0
Z_542_0_0 0
Z_542_0_1 0
Z_542_0_2 0
Z_542_0_3 1
Z_542_0_4 0
Z_621_6_0 0
Z_621_6_1 0
Z_621_6_2 0
Z_621_6_3 1
Z_621_6_4 0
Z_621_2_0 0
Z_621_2_1 0
Z_621_2_2 0
Z_621_2_3 0
Z_621_2_4 1
Z_621_1_0 0
Z_621_1_1 0
Z_621_1_2 0
Z_621_1_3 0
Z_621_1_4 1
Z_621_0_0 0
Z_621_0_1 0
Z_621_0_2 0
Z_621_0_3 0
Z_621_0_4 1
Z_621_3_0 0
Z_621_3_1 0
Z_621_3_2 0
Z_621_3_3 0
Z_621_3_4 1
Z_621_4_0 0
Z_621_4_1 0
Z_621_4_2 0
Z_621_4_3 0
Z_621_4_4 1
Z_621_5_0 0
Z_621_5_1 0
Z_621_5_2 0
Z_621_5_3 0
Z_621_5_4 1
Z_163_2_0 0
Z_163_2_1 0
Z_163_2_2 0
Z_163_2_3 0
Z_163_2_4 1
Z_163_5_0 0
Z_163_5_1 0
Z_163_5_2 0
Z_163_5_3 0
Z_163_5_4 1
Z_163_4_0 0
Z_163_4_1 0
Z_163_4_2 0
Z_163_4_3 0
Z_163_4_4 1
Z_163_0_0 0
Z_163_0_1 0
Z_163_0_2 0
Z_163_0_3 0
Z_163_0_4 1
Z_163_3_0 0
Z_163_3_1 0
Z_163_3_2 0
Z_163_3_3 1
Z_163_3_4 0
Z_163_1_0 0
Z_163_1_1 0
Z_163_1_2 0
Z_163_1_3 0
Z_163_1_4 1
Z_279_1_0 0
Z_279_1_1 0
Z_279_1_2 1
Z_279_1_3 0
Z_279_1_4 0
Z_448_0_0 0
Z_448_0_1 0
Z_448_0_2 0
Z_448_0_3 1
Z_448_0_4 0
Z_731_4_0 0
Z_731_4_1 0
Z_731_4_2 0
Z_731_4_3 0
Z_731_4_4 1
Z_731_2_0 0
Z_731_2_1 0
Z_731_2_2 0
Z_731_2_3 1
Z_731_2_4 0
Z_731_5_0 0
Z_731_5_1 0
Z_731_5_2 0
Z_731_5_3 0
Z_731_5_4 1
Z_731_1_0 0
Z_731_1_1 0
Z_731_1_2 0
Z_731_1_3 0
Z_731_1_4 1
Z_731_0_0 0
Z_731_0_1 0
Z_731_0_2 0
Z_731_0_3 0
Z_731_0_4 1
Z_731_3_0 0
Z_731_3_1 0
Z_731_3_2 0
Z_731_3_3 0
Z_731_3_4 1
Z_701_1_0 0
Z_701_1_1 0
Z_701_1_2 1
Z_701_1_3 0
Z_701_1_4 0
Z_421_1_0 0
Z_421_1_1 0
Z_421_1_2 1
Z_421_1_3 0
Z_421_1_4 0
Z_48_3_0 0
Z_48_3_1 0
Z_48_3_2 0
Z_48_3_3 0
Z_48_3_4 1
Z_48_1_0 0
Z_48_1_1 0
Z_48_1_2 0
Z_48_1_3 0
Z_48_1_4 1
Z_48_2_0 0
Z_48_2_1 0
Z_48_2_2 0
Z_48_2_3 0
Z_48_2_4 1
Z_48_0_0 0
Z_48_0_1 0
Z_48_0_2 0
Z_48_0_3 0
Z_48_0_4 1
Z_48_6_0 0
Z_48_6_1 0
Z_48_6_2 0
Z_48_6_3 0
Z_48_6_4 1
Z_48_4_0 0
Z_48_4_1 0
Z_48_4_2 0
Z_48_4_3 1
Z_48_4_4 0
Z_48_5_0 0
Z_48_5_1 0
Z_48_5_2 0
Z_48_5_3 0
Z_48_5_4 1
Z_59_0_0 0
Z_59_0_1 0
Z_59_0_2 0
Z_59_0_3 1
Z_59_0_4 0
Z_618_0_0 0
Z_618_0_1 0
Z_618_0_2 0
Z_618_0_3 1
Z_618_0_4 0
Z_618_4_0 0
Z_618_4_1 0
Z_618_4_2 0
Z_618_4_3 0
Z_618_4_4 1
Z_618_2_0 0
Z_618_2_1 0
Z_618_2_2 0
Z_618_2_3 0
Z_618_2_4 1
Z_618_3_0 0
Z_618_3_1 0
Z_618_3_2 0
Z_618_3_3 0
Z_618_3_4 1
Z_618_1_0 0
Z_618_1_1 0
Z_618_1_2 0
Z_618_1_3 0
Z_618_1_4 1
Z_313_2_0 0
Z_313_2_1 0
Z_313_2_2 0
Z_313_2_3 0
Z_313_2_4 1
Z_313_1_0 0
Z_313_1_1 0
Z_313_1_2 0
Z_313_1_3 0
Z_313_1_4 1
Z_313_0_0 0
Z_313_0_1 0
Z_313_0_2 0
Z_313_0_3 0
Z_313_0_4 1
Z_313_4_0 0
Z_313_4_1 0
Z_313_4_2 0
Z_313_4_3 0
Z_313_4_4 1
Z_313_5_0 0
Z_313_5_1 0
Z_313_5_2 0
Z_313_5_3 1
Z_313_5_4 0
Z_313_3_0 0
Z_313_3_1 0
Z_313_3_2 0
Z_313_3_3 0
Z_313_3_4 1
Z_705_0_0 0
Z_705_0_1 0
Z_705_0_2 0
Z_705_0_3 1
Z_705_0_4 0
Z_736_2_0 0
Z_736_2_1 0
Z_736_2_2 0
Z_736_2_3 0
Z_736_2_4 1
Z_736_9_0 0
Z_736_9_1 1
Z_736_9_2 0
Z_736_9_3 0
Z_736_9_4 0
Z_736_10_0 0
Z_736_10_1 0
Z_736_10_2 0
Z_736_10_3 0
Z_736_10_4 1
Z_736_6_0 0
Z_736_6_1 0
Z_736_6_2 1
Z_736_6_3 0
Z_736_6_4 0
Z_736_8_0 0
Z_736_8_1 0
Z_736_8_2 0
Z_736_8_3 0
Z_736_8_4 1
Z_736_1_0 0
Z_736_1_1 0
Z_736_1_2 0
Z_736_1_3 0
Z_736_1_4 1
Z_736_0_0 0
Z_736_0_1 0
Z_736_0_2 0
Z_736_0_3 0
Z_736_0_4 1
Z_736_7_0 0
Z_736_7_1 0
Z_736_7_2 0
Z_736_7_3 0
Z_736_7_4 1
Z_736_4_0 0
Z_736_4_1 0
Z_736_4_2 0
Z_736_4_3 0
Z_736_4_4 1
Z_736_3_0 0
Z_736_3_1 0
Z_736_3_2 0
Z_736_3_3 1
Z_736_3_4 0
Z_736_5_0 0
Z_736_5_1 0
Z_736_5_2 0
Z_736_5_3 0
Z_736_5_4 1
Z_30_0_0 0
Z_30_0_1 0
Z_30_0_2 0
Z_30_0_3 1
Z_30_0_4 0
Z_181_0_0 0
Z_181_0_1 0
Z_181_0_2 0
Z_181_0_3 1
Z_181_0_4 0
